100
300
30
0 0
33 55
5 37
53 95
88 16
39 59
12 89
83 91
96 6
97 92
70 68
71 78
98 65
48 90
69 1
75 80
78 85
7 83
74 61
40 53
17 43
48 62
67 95
80 4
58 68
46 67
26 37
54 76
75 87
54 44
30 68
0 0
50
40
40
70
30
50
30
50
40
50
50
50
50
40
40
50
40
40
70
30
50
30
50
40
50
50
50
50
40
40
